SYSTEM = CrS
 
# Parameters for this Run
ISTART= 0
NWRITE = 2
ISYM = 0
ISPIN = 2
ISMEAR = 0
SIGMA = 0.01
LORBIT = 11
NPAR = 5
KPAR = 2

# Ionic Relaxation
IBRION = 2
ISIF = 3
NSW = 500


# Electronic Relaxation 
ENCUT = 350.0 
EDIFF = 1E-05 
NELM = 350
NELMIN = 5


ALGO = All
PREC=Accurate

LREAL = .FALSE. 
LWAVE = .FALSE.
LCHARG = .FALSE.

